
Gurobi 8.0.0 (mac64, Python) logging started Wed May 16 21:17:12 2018

Academic license - for non-commercial use only
Optimize a model with 6 rows, 9 columns and 18 nonzeros
Coefficient statistics:
  Matrix range     [1e+00, 1e+00]
  Objective range  [1e+00, 4e+00]
  Bounds range     [0e+00, 0e+00]
  RHS range        [1e+00, 1e+00]
Presolve removed 3 rows and 3 columns
Presolve time: 0.01s
Presolved: 3 rows, 6 columns, 12 nonzeros

Iteration    Objective       Primal Inf.    Dual Inf.      Time
       0    6.0000000e+00   0.000000e+00   0.000000e+00      0s
       0    6.0000000e+00   0.000000e+00   0.000000e+00      0s

Solved in 0 iterations and 0.03 seconds
Optimal objective  6.000000000e+00
Optimize a model with 25 rows, 54 columns and 108 nonzeros
Coefficient statistics:
  Matrix range     [1e+00, 1e+00]
  Objective range  [9e+01, 6e+02]
  Bounds range     [0e+00, 0e+00]
  RHS range        [1e+00, 1e+00]
Presolve removed 4 rows and 4 columns
Presolve time: 0.01s
Presolved: 21 rows, 50 columns, 100 nonzeros

Iteration    Objective       Primal Inf.    Dual Inf.      Time
       0    3.4100000e+02   2.000000e+00   0.000000e+00      0s
      18    2.2280000e+03   0.000000e+00   0.000000e+00      0s

Solved in 18 iterations and 0.02 seconds
Optimal objective  2.228000000e+03
Optimize a model with 25 rows, 54 columns and 108 nonzeros
Coefficient statistics:
  Matrix range     [1e+00, 1e+00]
  Objective range  [9e+01, 6e+02]
  Bounds range     [0e+00, 0e+00]
  RHS range        [1e+00, 1e+00]
Presolve removed 4 rows and 4 columns
Presolve time: 0.01s
Presolved: 21 rows, 50 columns, 100 nonzeros

Iteration    Objective       Primal Inf.    Dual Inf.      Time
       0    3.4100000e+02   2.000000e+00   0.000000e+00      0s
      18    2.2280000e+03   0.000000e+00   0.000000e+00      0s

Solved in 18 iterations and 0.02 seconds
Optimal objective  2.228000000e+03
Optimize a model with 7 rows, 17 columns and 29 nonzeros
Coefficient statistics:
  Matrix range     [1e+00, 1e+00]
  Objective range  [2e+02, 4e+02]
  Bounds range     [0e+00, 0e+00]
  RHS range        [1e+00, 1e+00]
Presolve removed 2 rows and 6 columns
Presolve time: 0.01s
Presolved: 5 rows, 11 columns, 19 nonzeros

Iteration    Objective       Primal Inf.    Dual Inf.      Time
       0    3.4100000e+02   1.500000e+00   0.000000e+00      0s
       2    6.3400000e+02   0.000000e+00   0.000000e+00      0s

Solved in 2 iterations and 0.02 seconds
Optimal objective  6.340000000e+02
Optimize a model with 25 rows, 54 columns and 108 nonzeros
Coefficient statistics:
  Matrix range     [1e+00, 1e+00]
  Objective range  [9e+01, 6e+02]
  Bounds range     [0e+00, 0e+00]
  RHS range        [1e+00, 1e+00]
Presolve removed 4 rows and 4 columns
Presolve time: 0.01s
Presolved: 21 rows, 50 columns, 100 nonzeros

Iteration    Objective       Primal Inf.    Dual Inf.      Time
       0    3.4100000e+02   2.000000e+00   0.000000e+00      0s
      18    2.2280000e+03   0.000000e+00   0.000000e+00      0s

Solved in 18 iterations and 0.02 seconds
Optimal objective  2.228000000e+03
Optimize a model with 25 rows, 54 columns and 108 nonzeros
Coefficient statistics:
  Matrix range     [1e+00, 1e+00]
  Objective range  [9e+01, 6e+02]
  Bounds range     [0e+00, 0e+00]
  RHS range        [1e+00, 1e+00]
Presolve removed 4 rows and 4 columns
Presolve time: 0.01s
Presolved: 21 rows, 50 columns, 100 nonzeros

Iteration    Objective       Primal Inf.    Dual Inf.      Time
       0    3.4100000e+02   2.000000e+00   0.000000e+00      0s
      18    2.2280000e+03   0.000000e+00   0.000000e+00      0s

Solved in 18 iterations and 0.02 seconds
Optimal objective  2.228000000e+03
Optimize a model with 25 rows, 54 columns and 108 nonzeros
Coefficient statistics:
  Matrix range     [1e+00, 1e+00]
  Objective range  [9e+01, 6e+02]
  Bounds range     [0e+00, 0e+00]
  RHS range        [1e+00, 1e+00]
Presolve removed 4 rows and 4 columns
Presolve time: 0.01s
Presolved: 21 rows, 50 columns, 100 nonzeros

Iteration    Objective       Primal Inf.    Dual Inf.      Time
       0    3.4100000e+02   2.000000e+00   0.000000e+00      0s
      18    2.2280000e+03   0.000000e+00   0.000000e+00      0s

Solved in 18 iterations and 0.02 seconds
Optimal objective  2.228000000e+03
Optimize a model with 25 rows, 54 columns and 108 nonzeros
Coefficient statistics:
  Matrix range     [1e+00, 1e+00]
  Objective range  [9e+01, 6e+02]
  Bounds range     [0e+00, 0e+00]
  RHS range        [1e+00, 1e+00]
Presolve removed 4 rows and 4 columns
Presolve time: 0.01s
Presolved: 21 rows, 50 columns, 100 nonzeros

Iteration    Objective       Primal Inf.    Dual Inf.      Time
       0    3.4100000e+02   2.000000e+00   0.000000e+00      0s
      18    2.2280000e+03   0.000000e+00   0.000000e+00      0s

Solved in 18 iterations and 0.02 seconds
Optimal objective  2.228000000e+03
Optimize a model with 25 rows, 54 columns and 108 nonzeros
Coefficient statistics:
  Matrix range     [1e+00, 1e+00]
  Objective range  [9e+01, 6e+02]
  Bounds range     [0e+00, 0e+00]
  RHS range        [1e+00, 1e+00]
Presolve removed 4 rows and 4 columns
Presolve time: 0.01s
Presolved: 21 rows, 50 columns, 100 nonzeros

Iteration    Objective       Primal Inf.    Dual Inf.      Time
       0    3.4100000e+02   2.000000e+00   0.000000e+00      0s
      18    2.2280000e+03   0.000000e+00   0.000000e+00      0s

Solved in 18 iterations and 0.02 seconds
Optimal objective  2.228000000e+03
Optimize a model with 25 rows, 54 columns and 108 nonzeros
Coefficient statistics:
  Matrix range     [1e+00, 1e+00]
  Objective range  [9e+01, 6e+02]
  Bounds range     [0e+00, 0e+00]
  RHS range        [1e+00, 1e+00]
Presolve removed 4 rows and 4 columns
Presolve time: 0.01s
Presolved: 21 rows, 50 columns, 100 nonzeros

Iteration    Objective       Primal Inf.    Dual Inf.      Time
       0    3.4100000e+02   2.000000e+00   0.000000e+00      0s
      18    2.2280000e+03   0.000000e+00   0.000000e+00      0s

Solved in 18 iterations and 0.02 seconds
Optimal objective  2.228000000e+03
Optimize a model with 25 rows, 54 columns and 108 nonzeros
Coefficient statistics:
  Matrix range     [1e+00, 1e+00]
  Objective range  [9e+01, 6e+02]
  Bounds range     [0e+00, 0e+00]
  RHS range        [1e+00, 1e+00]
Presolve removed 4 rows and 4 columns
Presolve time: 0.01s
Presolved: 21 rows, 50 columns, 100 nonzeros

Iteration    Objective       Primal Inf.    Dual Inf.      Time
       0    3.4100000e+02   2.000000e+00   0.000000e+00      0s
      18    2.2280000e+03   0.000000e+00   0.000000e+00      0s

Solved in 18 iterations and 0.02 seconds
Optimal objective  2.228000000e+03
Optimize a model with 25 rows, 54 columns and 108 nonzeros
Coefficient statistics:
  Matrix range     [1e+00, 1e+00]
  Objective range  [9e+01, 6e+02]
  Bounds range     [0e+00, 0e+00]
  RHS range        [1e+00, 1e+00]
Presolve removed 4 rows and 4 columns
Presolve time: 0.01s
Presolved: 21 rows, 50 columns, 100 nonzeros

Iteration    Objective       Primal Inf.    Dual Inf.      Time
       0    3.4100000e+02   2.000000e+00   0.000000e+00      0s
      18    2.2280000e+03   0.000000e+00   0.000000e+00      0s

Solved in 18 iterations and 0.02 seconds
Optimal objective  2.228000000e+03
Optimize a model with 25 rows, 54 columns and 108 nonzeros
Coefficient statistics:
  Matrix range     [1e+00, 1e+00]
  Objective range  [9e+01, 6e+02]
  Bounds range     [0e+00, 0e+00]
  RHS range        [1e+00, 1e+00]
Presolve removed 4 rows and 4 columns
Presolve time: 0.01s
Presolved: 21 rows, 50 columns, 100 nonzeros

Iteration    Objective       Primal Inf.    Dual Inf.      Time
       0    3.4100000e+02   2.000000e+00   0.000000e+00      0s
      18    2.2280000e+03   0.000000e+00   0.000000e+00      0s

Solved in 18 iterations and 0.02 seconds
Optimal objective  2.228000000e+03
Optimize a model with 25 rows, 54 columns and 108 nonzeros
Coefficient statistics:
  Matrix range     [1e+00, 1e+00]
  Objective range  [9e+01, 6e+02]
  Bounds range     [0e+00, 0e+00]
  RHS range        [1e+00, 1e+00]
Presolve removed 4 rows and 4 columns
Presolve time: 0.01s
Presolved: 21 rows, 50 columns, 100 nonzeros

Iteration    Objective       Primal Inf.    Dual Inf.      Time
       0    3.4100000e+02   2.000000e+00   0.000000e+00      0s
      18    2.2280000e+03   0.000000e+00   0.000000e+00      0s

Solved in 18 iterations and 0.02 seconds
Optimal objective  2.228000000e+03
Optimize a model with 25 rows, 54 columns and 108 nonzeros
Coefficient statistics:
  Matrix range     [1e+00, 1e+00]
  Objective range  [9e+01, 6e+02]
  Bounds range     [0e+00, 0e+00]
  RHS range        [1e+00, 1e+00]
Presolve removed 4 rows and 4 columns
Presolve time: 0.01s
Presolved: 21 rows, 50 columns, 100 nonzeros

Iteration    Objective       Primal Inf.    Dual Inf.      Time
       0    3.4100000e+02   2.000000e+00   0.000000e+00      0s
      18    2.2280000e+03   0.000000e+00   0.000000e+00      0s

Solved in 18 iterations and 0.02 seconds
Optimal objective  2.228000000e+03
Optimize a model with 25 rows, 54 columns and 108 nonzeros
Coefficient statistics:
  Matrix range     [1e+00, 1e+00]
  Objective range  [9e+01, 6e+02]
  Bounds range     [0e+00, 0e+00]
  RHS range        [1e+00, 1e+00]
Presolve removed 4 rows and 4 columns
Presolve time: 0.01s
Presolved: 21 rows, 50 columns, 100 nonzeros

Iteration    Objective       Primal Inf.    Dual Inf.      Time
       0    3.4100000e+02   2.000000e+00   0.000000e+00      0s
      18    2.2280000e+03   0.000000e+00   0.000000e+00      0s

Solved in 18 iterations and 0.02 seconds
Optimal objective  2.228000000e+03
Optimize a model with 25 rows, 54 columns and 108 nonzeros
Coefficient statistics:
  Matrix range     [1e+00, 1e+00]
  Objective range  [9e+01, 6e+02]
  Bounds range     [0e+00, 0e+00]
  RHS range        [1e+00, 1e+00]
Presolve removed 4 rows and 4 columns
Presolve time: 0.01s
Presolved: 21 rows, 50 columns, 100 nonzeros

Iteration    Objective       Primal Inf.    Dual Inf.      Time
       0    3.4100000e+02   2.000000e+00   0.000000e+00      0s
      18    2.2280000e+03   0.000000e+00   0.000000e+00      0s

Solved in 18 iterations and 0.02 seconds
Optimal objective  2.228000000e+03
Optimize a model with 25 rows, 54 columns and 108 nonzeros
Coefficient statistics:
  Matrix range     [1e+00, 1e+00]
  Objective range  [9e+01, 6e+02]
  Bounds range     [0e+00, 0e+00]
  RHS range        [1e+00, 1e+00]
Presolve removed 4 rows and 4 columns
Presolve time: 0.01s
Presolved: 21 rows, 50 columns, 100 nonzeros

Iteration    Objective       Primal Inf.    Dual Inf.      Time
       0    3.4100000e+02   2.000000e+00   0.000000e+00      0s
      18    2.2280000e+03   0.000000e+00   0.000000e+00      0s

Solved in 18 iterations and 0.02 seconds
Optimal objective  2.228000000e+03
Optimize a model with 25 rows, 54 columns and 108 nonzeros
Coefficient statistics:
  Matrix range     [1e+00, 1e+00]
  Objective range  [8e+01, 6e+02]
  Bounds range     [0e+00, 0e+00]
  RHS range        [1e+00, 1e+00]
Presolve removed 4 rows and 4 columns
Presolve time: 0.01s
Presolved: 21 rows, 50 columns, 100 nonzeros

Iteration    Objective       Primal Inf.    Dual Inf.      Time
       0    3.1477000e+02   2.000000e+00   0.000000e+00      0s
      18    2.0566200e+03   0.000000e+00   0.000000e+00      0s

Solved in 18 iterations and 0.02 seconds
Optimal objective  2.056620000e+03
Optimize a model with 25 rows, 54 columns and 108 nonzeros
Coefficient statistics:
  Matrix range     [1e+00, 1e+00]
  Objective range  [6e+01, 5e+02]
  Bounds range     [0e+00, 0e+00]
  RHS range        [1e+00, 1e+00]
Presolve removed 4 rows and 4 columns
Presolve time: 0.01s
Presolved: 21 rows, 50 columns, 100 nonzeros

Iteration    Objective       Primal Inf.    Dual Inf.      Time
       0    2.4705000e+02   2.000000e+00   0.000000e+00      0s
      15    1.2098700e+03   0.000000e+00   0.000000e+00      0s

Solved in 15 iterations and 0.02 seconds
Optimal objective  1.209870000e+03
Optimize a model with 25 rows, 54 columns and 108 nonzeros
Coefficient statistics:
  Matrix range     [1e+00, 1e+00]
  Objective range  [9e+01, 6e+02]
  Bounds range     [0e+00, 0e+00]
  RHS range        [1e+00, 1e+00]
Presolve removed 4 rows and 4 columns
Presolve time: 0.01s
Presolved: 21 rows, 50 columns, 100 nonzeros

Iteration    Objective       Primal Inf.    Dual Inf.      Time
       0    3.4100000e+02   2.000000e+00   0.000000e+00      0s
      18    2.2280000e+03   0.000000e+00   0.000000e+00      0s

Solved in 18 iterations and 0.02 seconds
Optimal objective  2.228000000e+03
Optimize a model with 25 rows, 54 columns and 108 nonzeros
Coefficient statistics:
  Matrix range     [1e+00, 1e+00]
  Objective range  [9e+01, 6e+02]
  Bounds range     [0e+00, 0e+00]
  RHS range        [1e+00, 1e+00]
Presolve removed 4 rows and 4 columns
Presolve time: 0.01s
Presolved: 21 rows, 50 columns, 100 nonzeros

Iteration    Objective       Primal Inf.    Dual Inf.      Time
       0    3.4100000e+02   2.000000e+00   0.000000e+00      0s
      18    2.2280000e+03   0.000000e+00   0.000000e+00      0s

Solved in 18 iterations and 0.02 seconds
Optimal objective  2.228000000e+03
Optimize a model with 25 rows, 54 columns and 108 nonzeros
Coefficient statistics:
  Matrix range     [1e+00, 1e+00]
  Objective range  [9e+01, 6e+02]
  Bounds range     [0e+00, 0e+00]
  RHS range        [1e+00, 1e+00]
Presolve removed 4 rows and 4 columns
Presolve time: 0.01s
Presolved: 21 rows, 50 columns, 100 nonzeros

Iteration    Objective       Primal Inf.    Dual Inf.      Time
       0    3.4100000e+02   2.000000e+00   0.000000e+00      0s
      18    2.2280000e+03   0.000000e+00   0.000000e+00      0s

Solved in 18 iterations and 0.02 seconds
Optimal objective  2.228000000e+03
Optimize a model with 25 rows, 54 columns and 108 nonzeros
Coefficient statistics:
  Matrix range     [1e+00, 1e+00]
  Objective range  [6e+01, 5e+02]
  Bounds range     [0e+00, 0e+00]
  RHS range        [1e+00, 1e+00]
Presolve removed 4 rows and 4 columns
Presolve time: 0.01s
Presolved: 21 rows, 50 columns, 100 nonzeros

Iteration    Objective       Primal Inf.    Dual Inf.      Time
       0    2.4705000e+02   2.000000e+00   0.000000e+00      0s
      15    1.2098700e+03   0.000000e+00   0.000000e+00      0s

Solved in 15 iterations and 0.02 seconds
Optimal objective  1.209870000e+03
Optimize a model with 25 rows, 54 columns and 108 nonzeros
Coefficient statistics:
  Matrix range     [1e+00, 1e+00]
  Objective range  [8e+01, 6e+02]
  Bounds range     [0e+00, 0e+00]
  RHS range        [1e+00, 1e+00]
Presolve removed 4 rows and 4 columns
Presolve time: 0.01s
Presolved: 21 rows, 50 columns, 100 nonzeros

Iteration    Objective       Primal Inf.    Dual Inf.      Time
       0    3.1477000e+02   2.000000e+00   0.000000e+00      0s
      18    2.0566200e+03   0.000000e+00   0.000000e+00      0s

Solved in 18 iterations and 0.02 seconds
Optimal objective  2.056620000e+03
Optimize a model with 25 rows, 54 columns and 108 nonzeros
Coefficient statistics:
  Matrix range     [1e+00, 1e+00]
  Objective range  [9e+01, 1e+04]
  Bounds range     [0e+00, 0e+00]
  RHS range        [1e+00, 1e+00]
Presolve removed 4 rows and 4 columns
Presolve time: 0.01s
Presolved: 21 rows, 50 columns, 100 nonzeros

Iteration    Objective       Primal Inf.    Dual Inf.      Time
       0    4.1800000e+02   2.000000e+00   0.000000e+00      0s
      19    2.3300000e+03   0.000000e+00   0.000000e+00      0s

Solved in 19 iterations and 0.02 seconds
Optimal objective  2.330000000e+03
Optimize a model with 25 rows, 54 columns and 108 nonzeros
Coefficient statistics:
  Matrix range     [1e+00, 1e+00]
  Objective range  [8e+01, 1e+04]
  Bounds range     [0e+00, 0e+00]
  RHS range        [1e+00, 1e+00]
Presolve removed 4 rows and 4 columns
Presolve time: 0.01s
Presolved: 21 rows, 50 columns, 100 nonzeros

Iteration    Objective       Primal Inf.    Dual Inf.      Time
       0    3.8585000e+02   2.000000e+00   0.000000e+00      0s
      19    2.1507800e+03   0.000000e+00   0.000000e+00      0s

Solved in 19 iterations and 0.02 seconds
Optimal objective  2.150780000e+03
Optimize a model with 25 rows, 54 columns and 108 nonzeros
Coefficient statistics:
  Matrix range     [1e+00, 1e+00]
  Objective range  [8e+01, 1e+04]
  Bounds range     [0e+00, 0e+00]
  RHS range        [1e+00, 1e+00]
Presolve removed 4 rows and 4 columns
Presolve time: 0.02s
Presolved: 21 rows, 50 columns, 100 nonzeros

Iteration    Objective       Primal Inf.    Dual Inf.      Time
       0    3.8585000e+02   2.000000e+00   0.000000e+00      0s
      19    2.1507800e+03   0.000000e+00   0.000000e+00      0s

Solved in 19 iterations and 0.02 seconds
Optimal objective  2.150780000e+03
Optimize a model with 25 rows, 54 columns and 108 nonzeros
Coefficient statistics:
  Matrix range     [1e+00, 1e+00]
  Objective range  [9e+01, 1e+04]
  Bounds range     [0e+00, 0e+00]
  RHS range        [1e+00, 1e+00]
Presolve removed 4 rows and 4 columns
Presolve time: 0.01s
Presolved: 21 rows, 50 columns, 100 nonzeros

Iteration    Objective       Primal Inf.    Dual Inf.      Time
       0    4.1800000e+02   2.000000e+00   0.000000e+00      0s
      19    2.3300000e+03   0.000000e+00   0.000000e+00      0s

Solved in 19 iterations and 0.02 seconds
Optimal objective  2.330000000e+03
Optimize a model with 25 rows, 54 columns and 108 nonzeros
Coefficient statistics:
  Matrix range     [1e+00, 1e+00]
  Objective range  [9e+01, 1e+04]
  Bounds range     [0e+00, 0e+00]
  RHS range        [1e+00, 1e+00]
Presolve removed 4 rows and 4 columns
Presolve time: 0.01s
Presolved: 21 rows, 50 columns, 100 nonzeros

Iteration    Objective       Primal Inf.    Dual Inf.      Time
       0    4.1800000e+02   2.000000e+00   0.000000e+00      0s
      19    2.3300000e+03   0.000000e+00   0.000000e+00      0s

Solved in 19 iterations and 0.02 seconds
Optimal objective  2.330000000e+03
Optimize a model with 25 rows, 54 columns and 108 nonzeros
Coefficient statistics:
  Matrix range     [1e+00, 1e+00]
  Objective range  [9e+01, 1e+04]
  Bounds range     [0e+00, 0e+00]
  RHS range        [1e+00, 1e+00]
Presolve removed 4 rows and 4 columns
Presolve time: 0.01s
Presolved: 21 rows, 50 columns, 100 nonzeros

Iteration    Objective       Primal Inf.    Dual Inf.      Time
       0    4.1800000e+02   2.000000e+00   0.000000e+00      0s
      19    2.3300000e+03   0.000000e+00   0.000000e+00      0s

Solved in 19 iterations and 0.02 seconds
Optimal objective  2.330000000e+03
Optimize a model with 25 rows, 54 columns and 108 nonzeros
Coefficient statistics:
  Matrix range     [1e+00, 1e+00]
  Objective range  [9e+01, 1e+04]
  Bounds range     [0e+00, 0e+00]
  RHS range        [1e+00, 1e+00]
Presolve removed 4 rows and 4 columns
Presolve time: 0.01s
Presolved: 21 rows, 50 columns, 100 nonzeros

Iteration    Objective       Primal Inf.    Dual Inf.      Time
       0    4.1800000e+02   2.000000e+00   0.000000e+00      0s
      19    2.3300000e+03   0.000000e+00   0.000000e+00      0s

Solved in 19 iterations and 0.02 seconds
Optimal objective  2.330000000e+03
Optimize a model with 25 rows, 54 columns and 108 nonzeros
Coefficient statistics:
  Matrix range     [1e+00, 1e+00]
  Objective range  [9e+01, 1e+04]
  Bounds range     [0e+00, 0e+00]
  RHS range        [1e+00, 1e+00]
Presolve removed 4 rows and 4 columns
Presolve time: 0.01s
Presolved: 21 rows, 50 columns, 100 nonzeros

Iteration    Objective       Primal Inf.    Dual Inf.      Time
       0    4.1800000e+02   2.000000e+00   0.000000e+00      0s
      19    2.3300000e+03   0.000000e+00   0.000000e+00      0s

Solved in 19 iterations and 0.02 seconds
Optimal objective  2.330000000e+03
Optimize a model with 25 rows, 54 columns and 108 nonzeros
Coefficient statistics:
  Matrix range     [1e+00, 1e+00]
  Objective range  [9e+01, 1e+04]
  Bounds range     [0e+00, 0e+00]
  RHS range        [1e+00, 1e+00]
Presolve removed 4 rows and 4 columns
Presolve time: 0.01s
Presolved: 21 rows, 50 columns, 100 nonzeros

Iteration    Objective       Primal Inf.    Dual Inf.      Time
       0    4.1800000e+02   2.000000e+00   0.000000e+00      0s
      19    2.3300000e+03   0.000000e+00   0.000000e+00      0s

Solved in 19 iterations and 0.02 seconds
Optimal objective  2.330000000e+03
Optimize a model with 25 rows, 54 columns and 108 nonzeros
Variable types: 0 continuous, 54 integer (0 binary)
Coefficient statistics:
  Matrix range     [1e+00, 1e+00]
  Objective range  [9e+01, 1e+04]
  Bounds range     [0e+00, 0e+00]
  RHS range        [1e+00, 1e+00]
Found heuristic solution: objective 12692.000000
Presolve removed 25 rows and 54 columns
Presolve time: 0.01s
Presolve: All rows and columns removed

Explored 0 nodes (0 simplex iterations) in 0.03 seconds
Thread count was 1 (of 8 available processors)

Solution count 2: 2330 12692 

Optimal solution found (tolerance 1.00e-04)
Best objective 2.330000000000e+03, best bound 2.330000000000e+03, gap 0.0000%
Optimize a model with 25 rows, 54 columns and 108 nonzeros
Coefficient statistics:
  Matrix range     [1e+00, 1e+00]
  Objective range  [9e+01, 1e+04]
  Bounds range     [0e+00, 0e+00]
  RHS range        [1e+00, 1e+00]
Presolve removed 4 rows and 4 columns
Presolve time: 0.01s
Presolved: 21 rows, 50 columns, 100 nonzeros

Iteration    Objective       Primal Inf.    Dual Inf.      Time
       0    4.1800000e+02   2.000000e+00   0.000000e+00      0s
      19    2.3300000e+03   0.000000e+00   0.000000e+00      0s

Solved in 19 iterations and 0.02 seconds
Optimal objective  2.330000000e+03
Optimize a model with 25 rows, 54 columns and 108 nonzeros
Coefficient statistics:
  Matrix range     [1e+00, 1e+00]
  Objective range  [8e+01, 6e+02]
  Bounds range     [0e+00, 0e+00]
  RHS range        [1e+00, 1e+00]
Presolve removed 4 rows and 4 columns
Presolve time: 0.01s
Presolved: 21 rows, 50 columns, 100 nonzeros

Iteration    Objective       Primal Inf.    Dual Inf.      Time
       0    3.1477000e+02   2.000000e+00   0.000000e+00      0s
      18    2.0566200e+03   0.000000e+00   0.000000e+00      0s

Solved in 18 iterations and 0.02 seconds
Optimal objective  2.056620000e+03
Optimize a model with 25 rows, 54 columns and 108 nonzeros
Coefficient statistics:
  Matrix range     [1e+00, 1e+00]
  Objective range  [8e+01, 6e+02]
  Bounds range     [0e+00, 0e+00]
  RHS range        [1e+00, 1e+00]
Presolve removed 4 rows and 4 columns
Presolve time: 0.01s
Presolved: 21 rows, 50 columns, 100 nonzeros

Iteration    Objective       Primal Inf.    Dual Inf.      Time
       0    3.1477000e+02   2.000000e+00   0.000000e+00      0s
      18    2.0566200e+03   0.000000e+00   0.000000e+00      0s

Solved in 18 iterations and 0.02 seconds
Optimal objective  2.056620000e+03
Optimize a model with 25 rows, 54 columns and 108 nonzeros
Coefficient statistics:
  Matrix range     [1e+00, 1e+00]
  Objective range  [8e+01, 6e+02]
  Bounds range     [0e+00, 0e+00]
  RHS range        [1e+00, 1e+00]
Presolve removed 4 rows and 4 columns
Presolve time: 0.01s
Presolved: 21 rows, 50 columns, 100 nonzeros

Iteration    Objective       Primal Inf.    Dual Inf.      Time
       0    3.1477000e+02   2.000000e+00   0.000000e+00      0s
      18    2.0566200e+03   0.000000e+00   0.000000e+00      0s

Solved in 18 iterations and 0.02 seconds
Optimal objective  2.056620000e+03
Optimize a model with 26 rows, 54 columns and 109 nonzeros
Coefficient statistics:
  Matrix range     [1e+00, 1e+00]
  Objective range  [8e+01, 6e+02]
  Bounds range     [0e+00, 0e+00]
  RHS range        [1e+00, 1e+00]
Presolve removed 5 rows and 8 columns
Presolve time: 0.01s
Presolved: 21 rows, 46 columns, 92 nonzeros

Iteration    Objective       Primal Inf.    Dual Inf.      Time
       0    3.8585000e+02   2.000000e+00   0.000000e+00      0s
      18    2.1507800e+03   0.000000e+00   0.000000e+00      0s

Solved in 18 iterations and 0.02 seconds
Optimal objective  2.150780000e+03
Optimize a model with 26 rows, 54 columns and 109 nonzeros
Coefficient statistics:
  Matrix range     [1e+00, 1e+00]
  Objective range  [8e+01, 6e+02]
  Bounds range     [0e+00, 0e+00]
  RHS range        [1e+00, 1e+00]
Presolve removed 5 rows and 8 columns
Presolve time: 0.01s
Presolved: 21 rows, 46 columns, 92 nonzeros

Iteration    Objective       Primal Inf.    Dual Inf.      Time
       0    3.8585000e+02   2.000000e+00   0.000000e+00      0s
      18    2.1507800e+03   0.000000e+00   0.000000e+00      0s

Solved in 18 iterations and 0.02 seconds
Optimal objective  2.150780000e+03
Optimize a model with 26 rows, 54 columns and 109 nonzeros
Coefficient statistics:
  Matrix range     [1e+00, 1e+00]
  Objective range  [8e+01, 6e+02]
  Bounds range     [0e+00, 0e+00]
  RHS range        [1e+00, 1e+00]
Presolve removed 5 rows and 8 columns
Presolve time: 0.01s
Presolved: 21 rows, 46 columns, 92 nonzeros

Iteration    Objective       Primal Inf.    Dual Inf.      Time
       0    3.8585000e+02   2.000000e+00   0.000000e+00      0s
      18    2.1507800e+03   0.000000e+00   0.000000e+00      0s

Solved in 18 iterations and 0.02 seconds
Optimal objective  2.150780000e+03
Optimize a model with 26 rows, 54 columns and 109 nonzeros
Coefficient statistics:
  Matrix range     [1e+00, 1e+00]
  Objective range  [8e+01, 6e+02]
  Bounds range     [0e+00, 0e+00]
  RHS range        [1e+00, 1e+00]
Presolve removed 5 rows and 8 columns
Presolve time: 0.01s
Presolved: 21 rows, 46 columns, 92 nonzeros

Iteration    Objective       Primal Inf.    Dual Inf.      Time
       0    3.8585000e+02   2.000000e+00   0.000000e+00      0s
      18    2.1507800e+03   0.000000e+00   0.000000e+00      0s

Solved in 18 iterations and 0.02 seconds
Optimal objective  2.150780000e+03
Optimize a model with 27 rows, 54 columns and 110 nonzeros
Coefficient statistics:
  Matrix range     [1e+00, 1e+00]
  Objective range  [8e+01, 6e+02]
  Bounds range     [0e+00, 0e+00]
  RHS range        [1e+00, 1e+00]
Presolve removed 6 rows and 9 columns
Presolve time: 0.01s
Presolved: 21 rows, 45 columns, 90 nonzeros

Iteration    Objective       Primal Inf.    Dual Inf.      Time
       0    3.8585000e+02   2.000000e+00   0.000000e+00      0s
      18    2.2246200e+03   0.000000e+00   0.000000e+00      0s

Solved in 18 iterations and 0.02 seconds
Optimal objective  2.224620000e+03
Optimize a model with 27 rows, 54 columns and 110 nonzeros
Coefficient statistics:
  Matrix range     [1e+00, 1e+00]
  Objective range  [8e+01, 6e+02]
  Bounds range     [0e+00, 0e+00]
  RHS range        [1e+00, 1e+00]
Presolve removed 6 rows and 9 columns
Presolve time: 0.01s
Presolved: 21 rows, 45 columns, 90 nonzeros

Iteration    Objective       Primal Inf.    Dual Inf.      Time
       0    3.8585000e+02   2.000000e+00   0.000000e+00      0s
      18    2.2246200e+03   0.000000e+00   0.000000e+00      0s

Solved in 18 iterations and 0.02 seconds
Optimal objective  2.224620000e+03
Optimize a model with 27 rows, 54 columns and 110 nonzeros
Coefficient statistics:
  Matrix range     [1e+00, 1e+00]
  Objective range  [8e+01, 6e+02]
  Bounds range     [0e+00, 0e+00]
  RHS range        [1e+00, 1e+00]
Presolve removed 6 rows and 9 columns
Presolve time: 0.01s
Presolved: 21 rows, 45 columns, 90 nonzeros

Iteration    Objective       Primal Inf.    Dual Inf.      Time
       0    3.8585000e+02   2.000000e+00   0.000000e+00      0s
      18    2.2246200e+03   0.000000e+00   0.000000e+00      0s

Solved in 18 iterations and 0.03 seconds
Optimal objective  2.224620000e+03
Optimize a model with 27 rows, 54 columns and 110 nonzeros
Coefficient statistics:
  Matrix range     [1e+00, 1e+00]
  Objective range  [8e+01, 6e+02]
  Bounds range     [0e+00, 0e+00]
  RHS range        [1e+00, 1e+00]
Presolve removed 6 rows and 9 columns
Presolve time: 0.01s
Presolved: 21 rows, 45 columns, 90 nonzeros

Iteration    Objective       Primal Inf.    Dual Inf.      Time
       0    3.8585000e+02   2.000000e+00   0.000000e+00      0s
      18    2.2246200e+03   0.000000e+00   0.000000e+00      0s

Solved in 18 iterations and 0.02 seconds
Optimal objective  2.224620000e+03
Optimize a model with 27 rows, 54 columns and 110 nonzeros
Coefficient statistics:
  Matrix range     [1e+00, 1e+00]
  Objective range  [8e+01, 6e+02]
  Bounds range     [0e+00, 0e+00]
  RHS range        [1e+00, 1e+00]
Presolve removed 6 rows and 9 columns
Presolve time: 0.01s
Presolved: 21 rows, 45 columns, 90 nonzeros

Iteration    Objective       Primal Inf.    Dual Inf.      Time
       0    3.8585000e+02   2.000000e+00   0.000000e+00      0s
      18    2.2246200e+03   0.000000e+00   0.000000e+00      0s

Solved in 18 iterations and 0.02 seconds
Optimal objective  2.224620000e+03
Optimize a model with 27 rows, 54 columns and 110 nonzeros
Coefficient statistics:
  Matrix range     [1e+00, 1e+00]
  Objective range  [8e+01, 6e+02]
  Bounds range     [0e+00, 0e+00]
  RHS range        [1e+00, 1e+00]
Presolve removed 6 rows and 9 columns
Presolve time: 0.01s
Presolved: 21 rows, 45 columns, 90 nonzeros

Iteration    Objective       Primal Inf.    Dual Inf.      Time
       0    3.8585000e+02   2.000000e+00   0.000000e+00      0s
      18    2.2246200e+03   0.000000e+00   0.000000e+00      0s

Solved in 18 iterations and 0.02 seconds
Optimal objective  2.224620000e+03
Optimize a model with 27 rows, 54 columns and 110 nonzeros
Coefficient statistics:
  Matrix range     [1e+00, 1e+00]
  Objective range  [6e+01, 5e+02]
  Bounds range     [0e+00, 0e+00]
  RHS range        [1e+00, 1e+00]
Presolve removed 6 rows and 9 columns
Presolve time: 0.01s
Presolved: 21 rows, 45 columns, 90 nonzeros

Iteration    Objective       Primal Inf.    Dual Inf.      Time
       0    2.4705000e+02   2.000000e+00   0.000000e+00      0s
      15    1.2098700e+03   0.000000e+00   0.000000e+00      0s

Solved in 15 iterations and 0.02 seconds
Optimal objective  1.209870000e+03
Optimize a model with 27 rows, 54 columns and 110 nonzeros
Coefficient statistics:
  Matrix range     [1e+00, 1e+00]
  Objective range  [6e+01, 5e+02]
  Bounds range     [0e+00, 0e+00]
  RHS range        [1e+00, 1e+00]
Presolve removed 6 rows and 9 columns
Presolve time: 0.01s
Presolved: 21 rows, 45 columns, 90 nonzeros

Iteration    Objective       Primal Inf.    Dual Inf.      Time
       0    2.4705000e+02   2.000000e+00   0.000000e+00      0s
      15    1.2098700e+03   0.000000e+00   0.000000e+00      0s

Solved in 15 iterations and 0.02 seconds
Optimal objective  1.209870000e+03
Optimize a model with 27 rows, 54 columns and 110 nonzeros
Coefficient statistics:
  Matrix range     [1e+00, 1e+00]
  Objective range  [9e+01, 6e+02]
  Bounds range     [0e+00, 0e+00]
  RHS range        [1e+00, 1e+00]
Presolve removed 6 rows and 9 columns
Presolve time: 0.01s
Presolved: 21 rows, 45 columns, 90 nonzeros

Iteration    Objective       Primal Inf.    Dual Inf.      Time
       0    4.1800000e+02   2.000000e+00   0.000000e+00      0s
      18    2.4100000e+03   0.000000e+00   0.000000e+00      0s

Solved in 18 iterations and 0.02 seconds
Optimal objective  2.410000000e+03
Optimize a model with 27 rows, 54 columns and 110 nonzeros
Coefficient statistics:
  Matrix range     [1e+00, 1e+00]
  Objective range  [8e+01, 6e+02]
  Bounds range     [0e+00, 0e+00]
  RHS range        [1e+00, 1e+00]
Presolve removed 6 rows and 9 columns
Presolve time: 0.01s
Presolved: 21 rows, 45 columns, 90 nonzeros

Iteration    Objective       Primal Inf.    Dual Inf.      Time
       0    3.8585000e+02   2.000000e+00   0.000000e+00      0s
      18    2.2246200e+03   0.000000e+00   0.000000e+00      0s

Solved in 18 iterations and 0.02 seconds
Optimal objective  2.224620000e+03
Optimize a model with 27 rows, 54 columns and 110 nonzeros
Coefficient statistics:
  Matrix range     [1e+00, 1e+00]
  Objective range  [8e+01, 6e+02]
  Bounds range     [0e+00, 0e+00]
  RHS range        [1e+00, 1e+00]
Presolve removed 6 rows and 9 columns
Presolve time: 0.01s
Presolved: 21 rows, 45 columns, 90 nonzeros

Iteration    Objective       Primal Inf.    Dual Inf.      Time
       0    3.8585000e+02   2.000000e+00   0.000000e+00      0s
      18    2.2246200e+03   0.000000e+00   0.000000e+00      0s

Solved in 18 iterations and 0.02 seconds
Optimal objective  2.224620000e+03
